COMUNI = {
	todi,
	perugia,
	umbertide,
	magione,
	orvieto,
	assisi,
	amelia,
	san_giustino,
	citta_di_castello,
	terni,
	bastia_umbra,
	gubbio,
	narni,
	gualdo_tardino,
	marsciano,
	corciano,
	spoleto,
	castiglione_del_lago,
	foligno,
};

NUMERO_COMUNI = 19;

ABITANTI_PER_COMUNE = [15, 161, 16, 14, 19, 27, 11, 11, 38, 106, 21, 30, 17, 14, 18, 21, 36, 15, 55];

STRADE_TRA_COMUNI = [|
	false, false, false, false, true, false, true, false, false, false, false, false, false, false, true, false, false, false, false |
	false, false, true, false, false, false, false, false, false, false, true, false, false, false, true, true, false, false, false |
	false, true, false, false, false, false, false, false, true, false, false, true, false, false, false, false, false, false, false |
	false, false, false, false, false, false, false, false, false, false, false, false, false, false, false, true, false, true, false |
	true, false, false, false, false, false, false, false, false, false, false, false, false, false, false, false, false, false, false |
	false, false, false, false, false, false, false, false, false, false, true, false, false, false, false, false, false, false, true |
	true, false, false, false, false, false, false, false, false, false, false, false, true, false, false, false, false, false, false |
	false, false, false, false, false, false, false, false, true, false, false, false, false, false, false, false, false, false, false |
	false, false, true, false, false, false, false, true, false, false, false, false, false, false, false, false, false, false, false |
	false, false, false, false, false, false, false, false, false, false, false, false, true, false, false, false, true, false, false |
	false, true, false, false, false, true, false, false, false, false, false, false, false, false, false, false, false, false, false |
	false, false, true, false, false, false, false, false, false, false, false, false, false, true, false, false, false, false, false |
	false, false, false, false, false, false, true, false, false, true, false, false, false, false, false, false, false, false, false |
	false, false, false, false, false, false, false, false, false, false, false, true, false, false, false, false, false, false, false |
	true, true, false, false, false, false, false, false, false, false, false, false, false, false, false, false, false, false, false |
	false, true, false, true, false, false, false, false, false, false, false, false, false, false, false, false, false, false, false |
	false, false, false, false, false, false, false, false, false, true, false, false, false, false, false, false, false, false, false |
	false, false, false, true, false, false, false, false, false, false, false, false, false, false, false, false, false, false, false |
	false, false, false, false, false, true, false, false, false, false, false, false, false, false, false, false, false, false, false |
|];

RICHIESTE = [|
	8, 2, 15, 3, 3 |
	2, 29, 14, 13, 1 |
	2, 0, 1, 3, 26 |
	5, 1, 12, 5, 2 |
	2, 8, 14, 3, 14 |
	2, 3, 3, 8, 7 |
	6, 3, 0, 0, 4 |
	5, 1, 10, 43, 5 |
	18, 10, 30, 18, 22 |
	5, 41, 47, 1, 0 |
	12, 8, 0, 16, 9 |
	17, 1, 9, 17, 8 |
	1, 22, 2, 0, 11 |
	35, 11, 39, 14, 2 |
	5, 22, 7, 11, 19 |
	3, 1, 1, 4, 20 |
	0, 2, 36, 30, 31 |
	2, 3, 5, 0, 2 |
	9, 5, 5, 1, 20 |
|];
